[[46, 44, 34, 39, 35, 36, 49, 22, 32, 45, 19, 10, 9, 8, 41, 3, 17, 18, 31, 21, 42, 2, 7, 30, 23, 20, 50], [16, 29, 47, 26, 14, 52, 13, 27, 28, 12, 11, 51, 33, 43, 4, 25, 6, 15, 5, 24, 48, 37, 38, 40]]